; benchmark generated from python API
(set-info :status unknown)
(declare-fun strlen_85_64 () (_ BitVec 64))
(declare-fun args_1_8 () (_ BitVec 8))
(declare-fun strlen_83_64 () (_ BitVec 64))
(declare-fun strncmp_ret_84_32 () (_ BitVec 32))
(declare-fun strncmp_ret_86_32 () (_ BitVec 32))
(declare-fun filesize_file_0_/proc/self/loginuid_88_64 () (_ BitVec 64))
(declare-fun syscall_stub_ioctl_94_32 () (_ BitVec 32))
(declare-fun syscall_stub_newfstatat_118_64 () (_ BitVec 64))
(declare-fun syscall_stub_readlink_157_64 () (_ BitVec 64))
(declare-fun mem_7fffffffffef420_167_8 () (_ BitVec 8))
(declare-fun syscall_stub_newfstatat_183_64 () (_ BitVec 64))
(declare-fun mem_7fffffffffef038_268_64 () (_ BitVec 64))
(declare-fun mem_7fffffffffeefa8_269_64 () (_ BitVec 64))
(declare-fun mem_7fffffffffeefa0_287_64 () (_ BitVec 64))
(declare-fun mem_7fffffffffef030_288_64 () (_ BitVec 64))
(declare-fun mem_7fffffffffef048_337_32 () (_ BitVec 32))
(declare-fun mem_7fffffffffeefc8_381_64 () (_ BitVec 64))
(declare-fun mem_7fffffffffef058_382_64 () (_ BitVec 64))
(declare-fun strlen_825_64 () (_ BitVec 64))
(declare-fun mem_7fffffffffef425_823_64 () (_ BitVec 64))
(declare-fun access_2090_32 () (_ BitVec 32))
(declare-fun access_3087_32 () (_ BitVec 32))
(declare-fun mem_2c_3521_264 () (_ BitVec 264))
(declare-fun strlen_3522_64 () (_ BitVec 64))
(assert
 (let ((?x751 (bvadd (_ bv576460752303357826 64) strlen_85_64)))
 (let (($x69 (= (_ bv0 8) args_1_8)))
 (let ((?x46 (ite $x69 (_ bv576460752303357826 64) (_ bv576460752303357827 64))))
 (= ?x46 ?x751)))))
(assert
 (let ((?x101 (bvadd (_ bv576460752303357826 64) strlen_83_64)))
 (let (($x69 (= (_ bv0 8) args_1_8)))
 (let ((?x46 (ite $x69 (_ bv576460752303357826 64) (_ bv576460752303357827 64))))
 (= ?x46 ?x101)))))
(assert
 (let (($x104 (bvule (_ bv2 64) strlen_83_64)))
 (let (($x48 (= (_ bv2 64) strlen_83_64)))
 (let (($x122 (or $x48 $x104)))
 (let (($x123 (not $x122)))
 (let (($x57 (= (_ bv45 8) args_1_8)))
 (let (($x121 (not $x57)))
 (or $x121 $x123))))))))
(assert
 (= (_ bv1 32) strncmp_ret_84_32))
(assert
 (= (_ bv1 32) strncmp_ret_86_32))
(assert
 true)
(assert
 (let ((?x1236 ((_ extract 3 0) filesize_file_0_/proc/self/loginuid_88_64)))
 (let (($x1210 (bvsge (_ bv0 64) filesize_file_0_/proc/self/loginuid_88_64)))
 (let ((?x99 (ite $x1210 (_ bv0 4) ?x1236)))
 (let (($x1110 (bvule ?x99 (_ bv12 4))))
 (let (($x119703 (not $x1110)))
 (let ((?x1214 ((_ extract 63 63) filesize_file_0_/proc/self/loginuid_88_64)))
 (let (($x116245 (= (_ bv1 1) ?x1214)))
 (let (($x119835 (not $x116245)))
 (let ((?x1229 ((_ extract 63 4) filesize_file_0_/proc/self/loginuid_88_64)))
 (let (($x523 (= (_ bv0 60) ?x1229)))
 (let (($x516 (or $x1210 $x523)))
 (let (($x119942 (not $x516)))
 (let (($x119586 (or $x119942 $x119835 $x1210 $x119703)))
 (let (($x116912 (not $x119586)))
 (let (($x116860 (= (_ bv0 64) filesize_file_0_/proc/self/loginuid_88_64)))
 (let (($x117248 (or $x116860 $x1210)))
 (let (($x119482 (not $x117248)))
 (let (($x47155 (or $x119942 $x119703 $x119482)))
 (let (($x118344 (not $x47155)))
 (or $x118344 $x116912)))))))))))))))))))))
(assert
 (let (($x1210 (bvsge (_ bv0 64) filesize_file_0_/proc/self/loginuid_88_64)))
 (let ((?x1217 (ite $x1210 (_ bv0 64) filesize_file_0_/proc/self/loginuid_88_64)))
 (let ((?x1236 ((_ extract 3 0) filesize_file_0_/proc/self/loginuid_88_64)))
 (let ((?x99 (ite $x1210 (_ bv0 4) ?x1236)))
 (let (($x1110 (bvule ?x99 (_ bv12 4))))
 (let ((?x1229 ((_ extract 63 4) filesize_file_0_/proc/self/loginuid_88_64)))
 (let (($x523 (= (_ bv0 60) ?x1229)))
 (let (($x516 (or $x1210 $x523)))
 (let (($x975 (and $x516 $x1110)))
 (let ((?x1169 (ite $x975 ?x1217 (_ bv12 64))))
 (bvule ?x1169 (_ bv18446744073709547520 64)))))))))))))
(assert
 (= (_ bv0 32) syscall_stub_ioctl_94_32))
(assert
 (let ((?x40691 ((_ extract 31 0) syscall_stub_newfstatat_118_64)))
 (bvule ?x40691 (_ bv4294963200 32))))
(assert
 (= (_ bv13 64) syscall_stub_readlink_157_64))
(assert
 (= (_ bv47 8) mem_7fffffffffef420_167_8))
(assert
 (let ((?x116322 ((_ extract 31 0) syscall_stub_newfstatat_183_64)))
 (bvule ?x116322 (_ bv4294963200 32))))
(assert
 (= mem_7fffffffffeefa8_269_64 mem_7fffffffffef038_268_64))
(assert
 (= mem_7fffffffffef030_288_64 mem_7fffffffffeefa0_287_64))
(assert
 (let ((?x276913 ((_ extract 15 12) mem_7fffffffffef048_337_32)))
 (= (_ bv2 4) ?x276913)))
(assert
 (= mem_7fffffffffef058_382_64 mem_7fffffffffeefc8_381_64))
(assert
 (let ((?x439441 (bvadd (_ bv576460752303354917 64) strlen_825_64)))
 (let ((?x440459 ((_ extract 7 0) mem_7fffffffffef425_823_64)))
 (let (($x440941 (= (_ bv0 8) ?x440459)))
 (let ((?x116663 (ite $x440941 (_ bv576460752303354924 64) (_ bv576460752303354925 64))))
 (let ((?x438402 ((_ extract 15 8) mem_7fffffffffef425_823_64)))
 (let (($x440942 (= (_ bv0 8) ?x438402)))
 (let ((?x118666 (ite $x440942 (_ bv576460752303354923 64) ?x116663)))
 (let ((?x440881 ((_ extract 23 16) mem_7fffffffffef425_823_64)))
 (let (($x276525 (= (_ bv0 8) ?x440881)))
 (let ((?x115305 (ite $x276525 (_ bv576460752303354922 64) ?x118666)))
 (let ((?x389973 ((_ extract 31 24) mem_7fffffffffef425_823_64)))
 (let (($x390790 (= (_ bv0 8) ?x389973)))
 (let ((?x118419 (ite $x390790 (_ bv576460752303354921 64) ?x115305)))
 (let ((?x277261 ((_ extract 39 32) mem_7fffffffffef425_823_64)))
 (let (($x440855 (= (_ bv0 8) ?x277261)))
 (let ((?x114494 (ite $x440855 (_ bv576460752303354920 64) ?x118419)))
 (let ((?x440607 ((_ extract 47 40) mem_7fffffffffef425_823_64)))
 (let (($x277345 (= (_ bv0 8) ?x440607)))
 (let ((?x116316 (ite $x277345 (_ bv576460752303354919 64) ?x114494)))
 (let ((?x439967 ((_ extract 55 48) mem_7fffffffffef425_823_64)))
 (let (($x440888 (= (_ bv0 8) ?x439967)))
 (let ((?x115490 (ite $x440888 (_ bv576460752303354918 64) ?x116316)))
 (let ((?x440536 ((_ extract 63 56) mem_7fffffffffef425_823_64)))
 (let (($x439895 (= (_ bv0 8) ?x440536)))
 (let ((?x115816 (ite $x439895 (_ bv576460752303354917 64) ?x115490)))
 (= ?x115816 ?x439441)))))))))))))))))))))))))))
(assert
 (let ((?x439228 (bvadd (_ bv1 64) strlen_825_64)))
 (let ((?x440959 ((_ extract 63 4) ?x439228)))
 (= (_ bv0 60) ?x440959))))
(assert
 (let ((?x438914 ((_ extract 3 0) strlen_825_64)))
 (let ((?x439258 (bvadd (_ bv1 4) ?x438914)))
 (bvule ?x439258 (_ bv9 4)))))
(assert
 (let ((?x439228 (bvadd (_ bv1 64) strlen_825_64)))
 (let (($x439956 (bvule (_ bv31 64) strlen_825_64)))
 (let (($x277341 (bvule strlen_825_64 (_ bv18446744073709551614 64))))
 (let (($x438614 (and $x277341 $x439956)))
 (let ((?x441062 (ite $x438614 (_ bv32 64) ?x439228)))
 (bvule (_ bv1 64) ?x441062)))))))
(assert
 (let (($x277341 (bvule strlen_825_64 (_ bv18446744073709551614 64))))
 (let (($x441018 (not $x277341)))
 (let (($x439956 (bvule (_ bv31 64) strlen_825_64)))
 (let (($x439107 (not $x439956)))
 (or $x439107 $x441018))))))
(assert
 (let (($x459430 (= (_ bv4294967295 32) access_2090_32)))
 (let (($x479859 (= (_ bv0 32) access_2090_32)))
 (or $x479859 $x459430))))
(assert
 (= (_ bv0 32) access_2090_32))
(assert
 (let (($x494396 (= (_ bv4294967295 32) access_3087_32)))
 (let (($x497299 (= (_ bv0 32) access_3087_32)))
 (or $x497299 $x494396))))
(assert
 (= (_ bv0 32) access_3087_32))
(assert
 (let ((?x560081 ((_ extract 15 8) mem_2c_3521_264)))
 (let (($x560131 (= (_ bv0 8) ?x560081)))
 (let ((?x560129 ((_ extract 23 16) mem_2c_3521_264)))
 (let (($x560128 (= (_ bv0 8) ?x560129)))
 (let ((?x560127 ((_ extract 31 24) mem_2c_3521_264)))
 (let (($x560126 (= (_ bv0 8) ?x560127)))
 (let ((?x560125 ((_ extract 39 32) mem_2c_3521_264)))
 (let (($x560124 (= (_ bv0 8) ?x560125)))
 (let ((?x560123 ((_ extract 47 40) mem_2c_3521_264)))
 (let (($x560122 (= (_ bv0 8) ?x560123)))
 (let ((?x560118 ((_ extract 55 48) mem_2c_3521_264)))
 (let (($x568065 (= (_ bv0 8) ?x560118)))
 (let ((?x571244 ((_ extract 63 56) mem_2c_3521_264)))
 (let (($x571260 (= (_ bv0 8) ?x571244)))
 (let ((?x572025 ((_ extract 71 64) mem_2c_3521_264)))
 (let (($x560112 (= (_ bv0 8) ?x572025)))
 (let ((?x568054 ((_ extract 79 72) mem_2c_3521_264)))
 (let (($x571390 (= (_ bv0 8) ?x568054)))
 (let ((?x549197 ((_ extract 87 80) mem_2c_3521_264)))
 (let (($x571381 (= (_ bv0 8) ?x549197)))
 (let ((?x560077 ((_ extract 95 88) mem_2c_3521_264)))
 (let (($x559004 (= (_ bv0 8) ?x560077)))
 (let ((?x567903 ((_ extract 103 96) mem_2c_3521_264)))
 (let (($x559448 (= (_ bv0 8) ?x567903)))
 (let ((?x559657 ((_ extract 111 104) mem_2c_3521_264)))
 (let (($x560073 (= (_ bv0 8) ?x559657)))
 (let ((?x571331 ((_ extract 119 112) mem_2c_3521_264)))
 (let (($x571297 (= (_ bv0 8) ?x571331)))
 (let ((?x567971 ((_ extract 127 120) mem_2c_3521_264)))
 (let (($x568030 (= (_ bv0 8) ?x567971)))
 (let ((?x560751 ((_ extract 135 128) mem_2c_3521_264)))
 (let (($x560068 (= (_ bv0 8) ?x560751)))
 (let ((?x560032 ((_ extract 143 136) mem_2c_3521_264)))
 (let (($x571318 (= (_ bv0 8) ?x560032)))
 (let ((?x571299 ((_ extract 151 144) mem_2c_3521_264)))
 (let (($x567978 (= (_ bv0 8) ?x571299)))
 (let ((?x571282 ((_ extract 159 152) mem_2c_3521_264)))
 (let (($x568057 (= (_ bv0 8) ?x571282)))
 (let ((?x571392 ((_ extract 167 160) mem_2c_3521_264)))
 (let (($x559477 (= (_ bv0 8) ?x571392)))
 (let ((?x559097 ((_ extract 175 168) mem_2c_3521_264)))
 (let (($x560091 (= (_ bv0 8) ?x559097)))
 (let ((?x551919 ((_ extract 183 176) mem_2c_3521_264)))
 (let (($x568068 (= (_ bv0 8) ?x551919)))
 (let ((?x559643 ((_ extract 191 184) mem_2c_3521_264)))
 (let (($x568048 (= (_ bv0 8) ?x559643)))
 (let ((?x571243 ((_ extract 199 192) mem_2c_3521_264)))
 (let (($x558910 (= (_ bv0 8) ?x571243)))
 (let ((?x571371 ((_ extract 207 200) mem_2c_3521_264)))
 (let (($x571327 (= (_ bv0 8) ?x571371)))
 (let ((?x560739 ((_ extract 215 208) mem_2c_3521_264)))
 (let (($x571354 (= (_ bv0 8) ?x560739)))
 (let ((?x558838 ((_ extract 223 216) mem_2c_3521_264)))
 (let (($x571302 (= (_ bv0 8) ?x558838)))
 (let ((?x571224 ((_ extract 231 224) mem_2c_3521_264)))
 (let (($x571408 (= (_ bv0 8) ?x571224)))
 (let ((?x560732 ((_ extract 239 232) mem_2c_3521_264)))
 (let (($x571386 (= (_ bv0 8) ?x560732)))
 (let ((?x571435 ((_ extract 247 240) mem_2c_3521_264)))
 (let (($x556640 (= (_ bv0 8) ?x571435)))
 (let ((?x558841 ((_ extract 255 248) mem_2c_3521_264)))
 (let (($x560109 (= (_ bv0 8) ?x558841)))
 (let ((?x560106 ((_ extract 263 256) mem_2c_3521_264)))
 (let (($x560107 (= (_ bv0 8) ?x560106)))
 (or $x560107 $x560109 $x556640 $x571386 $x571408 $x571302 $x571354 $x571327 $x558910 $x568048 $x568068 $x560091 $x559477 $x568057 $x567978 $x571318 $x560068 $x568030 $x571297 $x560073 $x559448 $x559004 $x571381 $x571390 $x560112 $x571260 $x568065 $x560122 $x560124 $x560126 $x560128 $x560131))))))))))))))))))))))))))))))))))))))))))))))))))))))))))))))))))
(assert
 (let ((?x560081 ((_ extract 15 8) mem_2c_3521_264)))
 (let (($x560131 (= (_ bv0 8) ?x560081)))
 (let ((?x559367 (ite $x560131 (_ bv75 64) (_ bv0 64))))
 (let ((?x560129 ((_ extract 23 16) mem_2c_3521_264)))
 (let (($x560128 (= (_ bv0 8) ?x560129)))
 (let ((?x571378 (ite $x560128 (_ bv74 64) ?x559367)))
 (let ((?x560127 ((_ extract 31 24) mem_2c_3521_264)))
 (let (($x560126 (= (_ bv0 8) ?x560127)))
 (let ((?x571346 (ite $x560126 (_ bv73 64) ?x571378)))
 (let ((?x560125 ((_ extract 39 32) mem_2c_3521_264)))
 (let (($x560124 (= (_ bv0 8) ?x560125)))
 (let ((?x548478 (ite $x560124 (_ bv72 64) ?x571346)))
 (let ((?x560123 ((_ extract 47 40) mem_2c_3521_264)))
 (let (($x560122 (= (_ bv0 8) ?x560123)))
 (let ((?x560116 (ite $x560122 (_ bv71 64) ?x548478)))
 (let ((?x560118 ((_ extract 55 48) mem_2c_3521_264)))
 (let (($x568065 (= (_ bv0 8) ?x560118)))
 (let ((?x559865 (ite $x568065 (_ bv70 64) ?x560116)))
 (let ((?x571244 ((_ extract 63 56) mem_2c_3521_264)))
 (let (($x571260 (= (_ bv0 8) ?x571244)))
 (let ((?x558886 (ite $x571260 (_ bv69 64) ?x559865)))
 (let ((?x572025 ((_ extract 71 64) mem_2c_3521_264)))
 (let (($x560112 (= (_ bv0 8) ?x572025)))
 (let ((?x571339 (ite $x560112 (_ bv68 64) ?x558886)))
 (let ((?x568054 ((_ extract 79 72) mem_2c_3521_264)))
 (let (($x571390 (= (_ bv0 8) ?x568054)))
 (let ((?x571330 (ite $x571390 (_ bv67 64) ?x571339)))
 (let ((?x549197 ((_ extract 87 80) mem_2c_3521_264)))
 (let (($x571381 (= (_ bv0 8) ?x549197)))
 (let ((?x568066 (ite $x571381 (_ bv66 64) ?x571330)))
 (let ((?x560077 ((_ extract 95 88) mem_2c_3521_264)))
 (let (($x559004 (= (_ bv0 8) ?x560077)))
 (let ((?x560136 (ite $x559004 (_ bv65 64) ?x568066)))
 (let ((?x567903 ((_ extract 103 96) mem_2c_3521_264)))
 (let (($x559448 (= (_ bv0 8) ?x567903)))
 (let ((?x551912 (ite $x559448 (_ bv64 64) ?x560136)))
 (let ((?x559657 ((_ extract 111 104) mem_2c_3521_264)))
 (let (($x560073 (= (_ bv0 8) ?x559657)))
 (let ((?x571431 (ite $x560073 (_ bv63 64) ?x551912)))
 (let ((?x571331 ((_ extract 119 112) mem_2c_3521_264)))
 (let (($x571297 (= (_ bv0 8) ?x571331)))
 (let ((?x559147 (ite $x571297 (_ bv62 64) ?x571431)))
 (let ((?x567971 ((_ extract 127 120) mem_2c_3521_264)))
 (let (($x568030 (= (_ bv0 8) ?x567971)))
 (let ((?x555341 (ite $x568030 (_ bv61 64) ?x559147)))
 (let ((?x560751 ((_ extract 135 128) mem_2c_3521_264)))
 (let (($x560068 (= (_ bv0 8) ?x560751)))
 (let ((?x560062 (ite $x560068 (_ bv60 64) ?x555341)))
 (let ((?x560032 ((_ extract 143 136) mem_2c_3521_264)))
 (let (($x571318 (= (_ bv0 8) ?x560032)))
 (let ((?x556718 (ite $x571318 (_ bv59 64) ?x560062)))
 (let ((?x571299 ((_ extract 151 144) mem_2c_3521_264)))
 (let (($x567978 (= (_ bv0 8) ?x571299)))
 (let ((?x572039 (ite $x567978 (_ bv58 64) ?x556718)))
 (let ((?x571282 ((_ extract 159 152) mem_2c_3521_264)))
 (let (($x568057 (= (_ bv0 8) ?x571282)))
 (let ((?x558657 (ite $x568057 (_ bv57 64) ?x572039)))
 (let ((?x571392 ((_ extract 167 160) mem_2c_3521_264)))
 (let (($x559477 (= (_ bv0 8) ?x571392)))
 (let ((?x558646 (ite $x559477 (_ bv56 64) ?x558657)))
 (let ((?x559097 ((_ extract 175 168) mem_2c_3521_264)))
 (let (($x560091 (= (_ bv0 8) ?x559097)))
 (let ((?x568071 (ite $x560091 (_ bv55 64) ?x558646)))
 (let ((?x551919 ((_ extract 183 176) mem_2c_3521_264)))
 (let (($x568068 (= (_ bv0 8) ?x551919)))
 (let ((?x571370 (ite $x568068 (_ bv54 64) ?x568071)))
 (let ((?x559643 ((_ extract 191 184) mem_2c_3521_264)))
 (let (($x568048 (= (_ bv0 8) ?x559643)))
 (let ((?x568021 (ite $x568048 (_ bv53 64) ?x571370)))
 (let ((?x571243 ((_ extract 199 192) mem_2c_3521_264)))
 (let (($x558910 (= (_ bv0 8) ?x571243)))
 (let ((?x560114 (ite $x558910 (_ bv52 64) ?x568021)))
 (let ((?x571371 ((_ extract 207 200) mem_2c_3521_264)))
 (let (($x571327 (= (_ bv0 8) ?x571371)))
 (let ((?x559287 (ite $x571327 (_ bv51 64) ?x560114)))
 (let ((?x560739 ((_ extract 215 208) mem_2c_3521_264)))
 (let (($x571354 (= (_ bv0 8) ?x560739)))
 (let ((?x558720 (ite $x571354 (_ bv50 64) ?x559287)))
 (let ((?x558838 ((_ extract 223 216) mem_2c_3521_264)))
 (let (($x571302 (= (_ bv0 8) ?x558838)))
 (let ((?x560716 (ite $x571302 (_ bv49 64) ?x558720)))
 (let ((?x571224 ((_ extract 231 224) mem_2c_3521_264)))
 (let (($x571408 (= (_ bv0 8) ?x571224)))
 (let ((?x568096 (ite $x571408 (_ bv48 64) ?x560716)))
 (let ((?x560732 ((_ extract 239 232) mem_2c_3521_264)))
 (let (($x571386 (= (_ bv0 8) ?x560732)))
 (let ((?x571419 (ite $x571386 (_ bv47 64) ?x568096)))
 (let ((?x571435 ((_ extract 247 240) mem_2c_3521_264)))
 (let (($x556640 (= (_ bv0 8) ?x571435)))
 (let ((?x571311 (ite $x556640 (_ bv46 64) ?x571419)))
 (let ((?x558841 ((_ extract 255 248) mem_2c_3521_264)))
 (let (($x560109 (= (_ bv0 8) ?x558841)))
 (let ((?x559986 (ite $x560109 (_ bv45 64) ?x571311)))
 (let ((?x560106 ((_ extract 263 256) mem_2c_3521_264)))
 (let (($x560107 (= (_ bv0 8) ?x560106)))
 (let ((?x560111 (ite $x560107 (_ bv44 64) ?x559986)))
 (let ((?x571438 (bvsub ?x560111 (_ bv44 64))))
 (= ?x571438 strlen_3522_64)))))))))))))))))))))))))))))))))))))))))))))))))))))))))))))))))))))))))))))))))))))))))))))))))))
(assert
 (let ((?x690979 (bvadd strlen_3522_64 (_ bv1 64))))
 (bvule ?x690979 (_ bv1024 64))))
(minimize strncmp_ret_86_32)
(maximize access_2090_32)
(maximize filesize_file_0_/proc/self/loginuid_88_64)
(maximize syscall_stub_newfstatat_183_64)
(maximize mem_7fffffffffef058_382_64)
(minimize strlen_825_64)
(minimize args_1_8)
(minimize mem_7fffffffffeefa0_287_64)
(minimize syscall_stub_newfstatat_183_64)
(maximize strncmp_ret_84_32)
(maximize strlen_825_64)
(maximize strlen_85_64)
(maximize mem_2c_3521_264)
(maximize mem_7fffffffffef420_167_8)
(maximize mem_7fffffffffef425_823_64)
(maximize mem_7fffffffffef030_288_64)
(minimize syscall_stub_ioctl_94_32)
(minimize strlen_3522_64)
(maximize mem_7fffffffffef048_337_32)
(minimize strncmp_ret_84_32)
(minimize mem_2c_3521_264)
(minimize mem_7fffffffffef038_268_64)
(maximize syscall_stub_ioctl_94_32)
(minimize access_3087_32)
(maximize args_1_8)
(minimize strlen_83_64)
(minimize mem_7fffffffffeefc8_381_64)
(maximize strlen_83_64)
(maximize syscall_stub_readlink_157_64)
(maximize mem_7fffffffffeefc8_381_64)
(minimize access_2090_32)
(maximize syscall_stub_newfstatat_118_64)
(minimize mem_7fffffffffef425_823_64)
(minimize syscall_stub_newfstatat_118_64)
(minimize mem_7fffffffffef058_382_64)
(minimize syscall_stub_readlink_157_64)
(maximize access_3087_32)
(maximize mem_7fffffffffeefa0_287_64)
(minimize mem_7fffffffffef420_167_8)
(minimize mem_7fffffffffeefa8_269_64)
(minimize mem_7fffffffffef030_288_64)
(maximize mem_7fffffffffeefa8_269_64)
(check-sat)
(get-objectives)
